
Starting CP-SAT solver v9.15.6755
Parameters: random_seed: 2026074035 max_time_in_seconds: 2500 log_search_progress: true cp_model_presolve: true linearization_level: 2 num_search_workers: 4 cp_model_probing_level: 2 symmetry_level: 2

Initial satisfaction model '': (model_fingerprint: 0x864e0b3a04c0524f)
#Variables: 724 (608 primary variables)
  - 724 Booleans in [0,1]
#kBoolAnd: 110 (#enforced: 110) (#literals: 330)
#kBoolOr: 110 (#enforced: 110) (#literals: 220)
#kExactlyOne: 87 (#literals: 261)
#kLinear1: 32 (#enforced: 6)
#kLinear2: 336 (#enforced: 336) (#complex_domain: 110)
#kLinear3: 1'600 (#enforced: 6)
#kLinearN: 1'132 (#enforced: 243) (#terms: 9'111)

Starting presolve at 0.00s
  6.95e-04s  0.00e+00d  [DetectDominanceRelations] 
  9.10e-03s  0.00e+00d  [PresolveToFixPoint] #num_loops=3 #num_dual_strengthening=1 
  4.33e-05s  0.00e+00d  [ExtractEncodingFromLinear] #potential_supersets=86 
  3.53e-04s  0.00e+00d  [DetectDuplicateColumns] 
  1.15e-04s  0.00e+00d  [DetectDuplicateConstraints] #duplicates=5 
[Symmetry] Graph for symmetry has 4'868 nodes and 15'698 arcs.
[Symmetry] Symmetry computation done. time: 0.00125916 dtime: 0.00180273
[SAT presolve] num removable Booleans: 220 / 626
[SAT presolve] num trivial clauses: 0
[SAT presolve] [0s] clauses:2'728 literals:7'422 vars:506 one_side_vars:66 simple_definition:1 singleton_clauses:0
[SAT presolve] [0.000222685s] clauses:2'727 literals:7'415 vars:506 one_side_vars:66 simple_definition:1 singleton_clauses:0
[SAT presolve] [0.000537181s] clauses:2'495 literals:7'080 vars:394 one_side_vars:66 simple_definition:2 singleton_clauses:0
  1.31e-04s  0.00e+00d  [DetectDuplicateConstraintsWithDifferentEnforcements] #without_enforcements=2 
  6.02e-03s  3.36e-03d  [Probe] #probed=1'293 #fixed_bools=23 #equiv=13 #new_binary_clauses=750 
  7.12e-04s  5.19e-04d  [MaxClique] Merged 689 constraints with 1'520 literals into 620 constraints with 1'395 literals
  8.68e-04s  0.00e+00d  [DetectDominanceRelations] 
  3.43e-03s  0.00e+00d  [PresolveToFixPoint] #num_loops=2 #num_dual_strengthening=2 
  1.17e-03s  0.00e+00d  [ProcessAtMostOneAndLinear] 
  1.16e-04s  0.00e+00d  [DetectDuplicateConstraints] #duplicates=12 
  9.34e-05s  0.00e+00d  [DetectDuplicateConstraintsWithDifferentEnforcements] 
  3.66e-03s  1.07e-04d  [DetectDominatedLinearConstraints] #relevant_constraints=816 #num_inclusions=517 #num_redundant=7 
  1.26e-04s  0.00e+00d  [DetectDifferentVariables] 
  7.76e-04s  8.74e-05d  [ProcessSetPPC] #relevant_constraints=3'174 #num_inclusions=286 
  2.83e-04s  3.54e-05d  [TransformClausesToExactlyOne] #num_amos=585 #num_clauses=1'797 #num_transformed=5 #num_checked=1'797 
  5.69e-05s  0.00e+00d  [DetectEncodedComplexDomains] 
  3.73e-05s  2.60e-07d  [FindAlmostIdenticalLinearConstraints] #num_tested_pairs=3 
  9.14e-04s  1.39e-03d  [FindBigAtMostOneAndLinearOverlap] 
  1.49e-03s  1.15e-03d  [FindBigVerticalLinearOverlap] #blocks=5 #saved_nz=293 
  3.78e-04s  6.33e-04d  [FindBigHorizontalLinearOverlap] #linears=452 
  3.55e-04s  2.80e-05d  [MergeClauses] #num_collisions=6 #num_merges=6 #num_saved_literals=13 
  5.98e-04s  0.00e+00d  [DetectDominanceRelations] 
  2.91e-03s  0.00e+00d  [PresolveToFixPoint] #num_loops=2 #num_dual_strengthening=1 
  5.94e-04s  0.00e+00d  [DetectDominanceRelations] 
  2.74e-03s  0.00e+00d  [PresolveToFixPoint] #num_loops=1 #num_dual_strengthening=1 
  1.99e-04s  0.00e+00d  [DetectDuplicateColumns] 
  9.47e-05s  0.00e+00d  [DetectDuplicateConstraints] 
[Symmetry] Graph for symmetry has 4'489 nodes and 13'684 arcs.
[Symmetry] Symmetry computation done. time: 0.000996436 dtime: 0.00138344
[SAT presolve] num removable Booleans: 100 / 477
[SAT presolve] num trivial clauses: 0
[SAT presolve] [0s] clauses:2'343 literals:6'705 vars:449 one_side_vars:144 simple_definition:11 singleton_clauses:0
[SAT presolve] [0.000221122s] clauses:2'343 literals:6'557 vars:449 one_side_vars:145 simple_definition:81 singleton_clauses:0
[SAT presolve] [0.000357086s] clauses:2'152 literals:6'113 vars:445 one_side_vars:181 simple_definition:64 singleton_clauses:0
  1.70e-04s  0.00e+00d  [DetectDuplicateConstraintsWithDifferentEnforcements] 
  5.37e-03s  1.72e-03d  [Probe] #probed=1'268 #new_binary_clauses=223 
  4.14e-04s  2.01e-04d  [MaxClique] Merged 473 constraints with 1'026 literals into 461 constraints with 1'013 literals
  8.23e-04s  0.00e+00d  [DetectDominanceRelations] 
  3.01e-03s  0.00e+00d  [PresolveToFixPoint] #num_loops=1 #num_dual_strengthening=1 
  1.05e-03s  0.00e+00d  [ProcessAtMostOneAndLinear] 
  1.08e-04s  0.00e+00d  [DetectDuplicateConstraints] 
  9.69e-05s  0.00e+00d  [DetectDuplicateConstraintsWithDifferentEnforcements] 
  1.16e-03s  5.54e-05d  [DetectDominatedLinearConstraints] #relevant_constraints=812 #num_inclusions=300 #num_redundant=1 
  1.41e-04s  0.00e+00d  [DetectDifferentVariables] 
  7.04e-04s  6.91e-05d  [ProcessSetPPC] #relevant_constraints=3'035 #num_inclusions=74 
  3.07e-04s  3.23e-05d  [TransformClausesToExactlyOne] #num_amos=457 #num_clauses=1'709 #num_checked=1'709 
  6.85e-05s  0.00e+00d  [DetectEncodedComplexDomains] 
  5.57e-05s  8.00e-08d  [FindAlmostIdenticalLinearConstraints] #num_tested_pairs=1 
  7.66e-04s  9.72e-04d  [FindBigAtMostOneAndLinearOverlap] 
  1.20e-03s  8.68e-04d  [FindBigVerticalLinearOverlap] #blocks=1 #saved_nz=70 
  3.43e-04s  5.74e-04d  [FindBigHorizontalLinearOverlap] #linears=452 
  3.20e-04s  2.61e-05d  [MergeClauses] #num_collisions=73 #num_merges=73 #num_saved_literals=177 
  8.21e-04s  0.00e+00d  [DetectDominanceRelations] 
  3.03e-03s  0.00e+00d  [PresolveToFixPoint] #num_loops=2 #num_dual_strengthening=1 
  8.39e-04s  0.00e+00d  [DetectDominanceRelations] 
  3.00e-03s  0.00e+00d  [PresolveToFixPoint] #num_loops=1 #num_dual_strengthening=1 
  1.51e-04s  0.00e+00d  [DetectDuplicateColumns] 
  1.11e-04s  0.00e+00d  [DetectDuplicateConstraints] 
[Symmetry] Graph for symmetry has 4'239 nodes and 12'691 arcs.
[Symmetry] Symmetry computation done. time: 0.00100696 dtime: 0.00130484
[SAT presolve] num removable Booleans: 96 / 473
[SAT presolve] num trivial clauses: 0
[SAT presolve] [0s] clauses:2'130 literals:6'065 vars:445 one_side_vars:181 simple_definition:64 singleton_clauses:0
[SAT presolve] [0.000220471s] clauses:2'130 literals:6'065 vars:445 one_side_vars:181 simple_definition:64 singleton_clauses:0
[SAT presolve] [0.000283218s] clauses:2'130 literals:6'065 vars:445 one_side_vars:181 simple_definition:64 singleton_clauses:0
  1.42e-04s  0.00e+00d  [DetectDuplicateConstraintsWithDifferentEnforcements] 
  5.23e-03s  1.70e-03d  [Probe] #probed=1'268 #new_binary_clauses=223 
  3.87e-04s  1.94e-04d  [MaxClique] 
  8.28e-04s  0.00e+00d  [DetectDominanceRelations] 
  3.01e-03s  0.00e+00d  [PresolveToFixPoint] #num_loops=1 #num_dual_strengthening=1 
  1.06e-03s  0.00e+00d  [ProcessAtMostOneAndLinear] 
  1.22e-04s  0.00e+00d  [DetectDuplicateConstraints] 
  1.05e-04s  0.00e+00d  [DetectDuplicateConstraintsWithDifferentEnforcements] 
  1.03e-03s  5.46e-05d  [DetectDominatedLinearConstraints] #relevant_constraints=812 #num_inclusions=300 
  1.44e-04s  0.00e+00d  [DetectDifferentVariables] 
  7.06e-04s  6.75e-05d  [ProcessSetPPC] #relevant_constraints=3'028 #num_inclusions=60 
  3.02e-04s  3.23e-05d  [TransformClausesToExactlyOne] #num_amos=454 #num_clauses=1'709 #num_checked=1'709 
  5.82e-05s  0.00e+00d  [DetectEncodedComplexDomains] 
  5.81e-05s  1.70e-07d  [FindAlmostIdenticalLinearConstraints] #num_tested_pairs=2 
  7.36e-04s  9.10e-04d  [FindBigAtMostOneAndLinearOverlap] 
  1.13e-03s  8.03e-04d  [FindBigVerticalLinearOverlap] 
  3.53e-04s  5.74e-04d  [FindBigHorizontalLinearOverlap] #linears=452 
  3.37e-04s  2.61e-05d  [MergeClauses] #num_collisions=73 #num_merges=73 #num_saved_literals=177 
  8.47e-04s  0.00e+00d  [DetectDominanceRelations] 
  3.01e-03s  0.00e+00d  [PresolveToFixPoint] #num_loops=1 #num_dual_strengthening=1 
  3.32e-05s  0.00e+00d  [MergeNoOverlap] 
  3.65e-05s  0.00e+00d  [MergeNoOverlap2D] 

Presolve summary:
  - 44 affine relations were detected.
  - rule 'TODO dual: only one blocking constraint?' was applied 877 times.
  - rule 'TODO linear inclusion: superset is equality' was applied 278 times.
  - rule 'affine: new relation' was applied 44 times.
  - rule 'at_most_one: removed literals' was applied 101 times.
  - rule 'at_most_one: size one' was applied 100 times.
  - rule 'at_most_one: transformed into max clique' was applied 2 times.
  - rule 'bool_and: cannot be enforced' was applied 1 time.
  - rule 'bool_or: always true' was applied 6 times.
  - rule 'bool_or: fixed literals' was applied 2 times.
  - rule 'bool_or: implications' was applied 75 times.
  - rule 'bool_or: only one literal' was applied 12 times.
  - rule 'bool_or: removed enforcement literal' was applied 557 times.
  - rule 'clauses: transformed into exactly one' was applied 5 times.
  - rule 'deductions: 852 stored' was applied 1 time.
  - rule 'dual: fix variable' was applied 1 time.
  - rule 'duplicate: merged rhs of linear constraint' was applied 16 times.
  - rule 'duplicate: removed constraint' was applied 17 times.
  - rule 'duplicate: removed enforced constraint' was applied 2 times.
  - rule 'enforcement: false literal' was applied 40 times.
  - rule 'enforcement: true literal' was applied 14 times.
  - rule 'exactly_one: removed literals' was applied 32 times.
  - rule 'exactly_one: satisfied' was applied 3 times.
  - rule 'exactly_one: singleton' was applied 2 times.
  - rule 'exactly_one: size two' was applied 30 times.
  - rule 'exactly_one: x and not(x)' was applied 10 times.
  - rule 'incompatible linear: add implication' was applied 114 times.
  - rule 'linear + amo: empty after processing' was applied 6 times.
  - rule 'linear + amo: extracted enforcement literal' was applied 58 times.
  - rule 'linear inclusion: redundant containing constraint' was applied 3 times.
  - rule 'linear inclusion: redundant included constraint' was applied 3 times.
  - rule 'linear inclusion: sparsify superset' was applied 2 times.
  - rule 'linear matrix: common vertical rectangle' was applied 6 times.
  - rule 'linear1: always true' was applied 2 times.
  - rule 'linear1: x in domain' was applied 26 times.
  - rule 'linear2: convert ax + by != cte to clauses' was applied 254 times.
  - rule 'linear2: convert implied ax + by == cte to clauses' was applied 114 times.
  - rule 'linear2: implied ax + by = cte has only one solution' was applied 8 times.
  - rule 'linear: always true' was applied 420 times.
  - rule 'linear: empty' was applied 3 times.
  - rule 'linear: enforcement literal in expression' was applied 2 times.
  - rule 'linear: extracted at most one (max)' was applied 1 time.
  - rule 'linear: fixed or dup variables' was applied 882 times.
  - rule 'linear: negative clause' was applied 1'299 times.
  - rule 'linear: negative reified and' was applied 78 times.
  - rule 'linear: never in domain' was applied 6 times.
  - rule 'linear: positive at most one' was applied 34 times.
  - rule 'linear: reduced variable domains' was applied 7 times.
  - rule 'linear: remapped using affine relations' was applied 26 times.
  - rule 'presolve: 90 unused variables removed.' was applied 1 time.
  - rule 'presolve: iteration' was applied 3 times.
  - rule 'probing: bool_or reduced to implication' was applied 42 times.
  - rule 'probing: simplified clauses' was applied 5 times.
  - rule 'setppc: bool_or in at_most_one' was applied 12 times.
  - rule 'setppc: removed dominated constraints' was applied 79 times.
  - rule 'variables: both boolean and its negation fix the same variable' was applied 1 time.
  - rule 'variables: detect half reified value encoding' was applied 2 times.

Presolved satisfaction model '': (model_fingerprint: 0xd1f92dd58db5892c)
#Variables: 478 (406 primary variables)
  - 473 Booleans in [0,1]
  - 3 in [0,2]
  - 1 in [0,6]
  - 1 in [0,9]
#kAtMostOne: 33 (#literals: 146)
#kBoolAnd: 259 (#enforced: 259) (#literals: 680)
#kBoolAndClauses: 73 (#enforced: 73 #multi: 73) (#literals: 323)
#kBoolOr: 1'563 (#literals: 4'723)
#kExactlyOne: 53 (#literals: 205)
#kLinearN: 812 (#enforced: 118) (#terms: 5'359)
[Symmetry] Graph for symmetry has 3'987 nodes and 12'691 arcs.
[Symmetry] Symmetry computation done. time: 0.000806793 dtime: 0.00128972

Preloading model.
#Model   0.10s var:478/478 constraints:2793/2793

Starting search at 0.10s with 4 workers.
3 full problem subsolvers: [default_lp, max_lp, no_lp]
1 first solution subsolver: [fj]
2 interleaved subsolvers: [feasibility_pump, rins/rens]
2 helper subsolvers: [neighborhood_helper, synchronization_agent]

#Model   0.21s var:476/478 constraints:2791/2793
#Model   0.35s var:468/478 constraints:2782/2793
#Model   0.49s var:454/478 constraints:2764/2793
#Model 583.15s var:453/478 constraints:2744/2793
#Model 638.17s var:452/478 constraints:2743/2793
#Model 891.04s var:451/478 constraints:2722/2793
#Model 902.73s var:450/478 constraints:2702/2793
#Model 910.97s var:449/478 constraints:2682/2793
#Model 911.60s var:448/478 constraints:2662/2793
#Model 913.73s var:447/478 constraints:2640/2793
#Model 913.78s var:444/478 constraints:2583/2793
#Model 913.85s var:433/478 constraints:2429/2793
#Model 913.95s var:374/478 constraints:1980/2793
#Done  913.97s no_lp

Task timing                   n [     min,      max]      avg      dev     time         n [     min,      max]      avg      dev    dtime
        'default_lp':         1 [  15.23m,   15.23m]   15.23m   0.00ns   15.23m         2 [  1.72ms,   14.73m]    7.37m    7.37m   14.73m
  'feasibility_pump':      4529 [937.76us, 104.63ms]   1.64ms   1.56ms    7.45s      4528 [276.62us,  92.27ms] 300.26us   1.37ms    1.36s
                'fj':      3243 [112.73ms, 196.91ms] 139.69ms   9.17ms    7.55m      3243 [100.00ms, 100.12ms] 100.02ms  14.85us    5.41m
            'max_lp':         1 [  15.23m,   15.23m]   15.23m   0.00ns   15.23m         2 [ 69.91ms,   20.64m]   10.32m   10.32m   20.64m
             'no_lp':         1 [  15.23m,   15.23m]   15.23m   0.00ns   15.23m         2 [  1.49ms,   31.59m]   15.79m   15.79m   31.59m
         'rins/rens':      4052 [ 21.31ms, 212.89ms] 111.77ms  41.33ms    7.55m      4052 [199.92us, 100.29ms]  68.40ms  37.00ms    4.62m

Search stats     Bools  Conflicts    Branches  Restarts  BacktrackToRoot  Backtrack   BoolPropag  IntegerPropag
  'default_lp':    473     99'936   4'472'059       527          631'921    898'676   37'819'613     44'505'556
      'max_lp':    473     41'893   6'741'673       286          940'885  1'212'263   52'491'711     71'402'286
       'no_lp':    473  9'043'449  12'390'503    31'198          271'948  9'235'330  747'042'844    185'448'391

SAT formula      Fixed  Equiv  Total  VarLeft  BinaryClauses  PermanentClauses  TemporaryClauses
  'default_lp':     29     10    473      434          1'782            22'020             2'560
      'max_lp':     28     10    473      435          1'730            24'250             3'234
       'no_lp':    166     10    473      297          1'914            59'029             7'693

SAT stats        ClassicMinim   LitRemoved  LitRemovedBinary   LitLearned  LitForgotten   Subsumed
  'default_lp':        87'380    1'121'591           450'164    2'543'488     1'334'411     40'660
      'max_lp':        34'799      318'146           162'105      775'818       224'212     20'353
       'no_lp':     8'130'956  130'541'890        31'422'717  192'649'331   142'988'149  2'846'708

Vivification       Clauses  Decisions  LitTrue  Subsumed  LitRemoved  DecisionReused  Conflicts
  'default_lp':    684'976  4'239'598        0    12'762     133'857         230'463      1'483
      'max_lp':  1'006'282  6'528'645        0    14'218     147'868         308'707      1'634
       'no_lp':    205'991  1'845'867        6    14'558     210'795          53'068      1'438

Clause deletion    at_true  l_and_not(l)  to_binary  sub_conflict  sub_extra  sub_decisions  sub_eager  sub_vivify  sub_probing  sub_inpro  blocked  eliminated  forgotten    promoted  conflicts
    'default_lp':    9'565             3         13        40'045        277          1'787        615      12'762        7'303     16'644        0           0     39'223     191'683     99'936
        'max_lp':    6'902            10          7        20'190         87            548        163      14'218        6'385     11'433        0           0      8'085      61'601     41'893
         'no_lp':   47'764             7         25     2'794'528     20'321        134'987     52'180      14'558       15'684    127'204        0           0  5'772'721  20'314'394  9'043'449

Lp stats         Component  Iterations  AddedCuts  OPTIMAL  DUAL_F.  DUAL_U.
  'default_lp':          1  10'266'126     34'983  130'858        1   56'877
      'max_lp':          1   4'704'585     35'322   13'771   20'325   10'762

Lp dimension        Final dimension of first component
  'default_lp':    286 rows, 330 columns, 2069 entries
      'max_lp':  1423 rows, 478 columns, 37858 entries

Lp debug         CutPropag  CutEqPropag  Adjust  Overflow        Bad  BadScaling
  'default_lp':         20           30  56'876         0  1'087'459           0
      'max_lp':          0           34  10'756         0  1'087'374           0

Lp pool          Constraints  Updates  Simplif  Merged  Shortened  Split  Strengthened      Cuts/Call
  'default_lp':       10'740    7'377        0       0        229      0             0  34'983/49'365
      'max_lp':       12'428   12'049        0       2        112      0           739  35'322/62'665

Lp Cut            default_lp  max_lp
          CG_FF:         301      75
           CG_K:         141       3
          CG_KL:         116       1
           CG_R:         368      47
          CG_RB:           1       -
         Clique:           -     103
             IB:          24       3
       MIR_1_FF:         118     410
        MIR_1_K:          26      25
       MIR_1_KL:          29       6
        MIR_1_R:         114     198
       MIR_1_RB:           3       -
      MIR_1_RLT:           -   3'326
       MIR_2_FF:         130     179
        MIR_2_K:          21      21
       MIR_2_KL:          33      16
        MIR_2_R:         181     246
       MIR_2_RB:           3       -
       MIR_3_FF:          84      55
        MIR_3_K:           5       7
       MIR_3_KL:          16       7
        MIR_3_R:         108      93
       MIR_3_RB:           2       -
      MIR_3_RBP:           2       1
       MIR_4_FF:          22       8
        MIR_4_K:           3       -
       MIR_4_KL:           4       1
        MIR_4_R:          57      55
       MIR_4_RB:           1       1
       MIR_5_FF:           8       -
        MIR_5_K:           2       -
       MIR_5_KL:           1       -
        MIR_5_R:          47      52
       MIR_6_FF:           5       2
        MIR_6_K:           1       -
        MIR_6_R:          35      52
      MIR_6_RBP:           -       1
   ZERO_HALF_FF:          82     246
    ZERO_HALF_K:          28       4
   ZERO_HALF_KL:           3       1
    ZERO_HALF_R:      32'752  30'033
   ZERO_HALF_RB:          17       2
  ZERO_HALF_RBP:          89      42

LNS stats       Improv/Calls  Closed  Difficulty  TimeLimit
  'rins/rens':     4052/4052     50%    7.38e-01       0.10

LS stats                                    Batches  Restarts/Perturbs   LinMoves   GenMoves  CompoundMoves  Bactracks  WeightUpdates  ScoreComputed
                             'fj_restart':      143                 58  4'375'847          0              0          0      3'232'442      7'284'171
                    'fj_restart_compound':      185                 47          0  1'940'072        132'404    903'741          4'394     32'918'465
                'fj_restart_compound_obj':      172                 47          0  1'803'687        122'193    840'662          4'237     30'591'078
            'fj_restart_compound_perturb':      156                 49          0  1'612'258        118'457    746'771          3'669     27'721'227
        'fj_restart_compound_perturb_obj':      268                 50          0  2'821'130        154'168  1'333'395          7'398     47'753'462
                       'fj_restart_decay':      199                 41  6'098'727          0              0          0        267'460      3'337'633
              'fj_restart_decay_compound':      201                 48          0  2'290'579        393'359    948'486          2'602     35'754'548
          'fj_restart_decay_compound_obj':       92                 49          0    959'550        168'914    395'178          1'224     16'251'143
      'fj_restart_decay_compound_perturb':      186                 55          0  2'089'583        364'891    862'229          2'440     33'061'307
  'fj_restart_decay_compound_perturb_obj':      383                 61          0  4'536'709        774'802  1'880'688          4'938     68'240'005
                   'fj_restart_decay_obj':      206                 59  6'310'975          0              0          0        277'015      3'480'438
               'fj_restart_decay_perturb':      127                 41  3'890'569          0              0          0        170'730      2'132'251
           'fj_restart_decay_perturb_obj':      132                 51  4'037'744          0              0          0        177'364      2'224'156
                         'fj_restart_obj':      277                 49  8'242'361          0              0          0      6'667'659     14'488'874
                     'fj_restart_perturb':      271                 49  8'585'708          0              0          0      6'540'395     13'042'380
                 'fj_restart_perturb_obj':      245                 64  7'474'876          0              0          0      5'784'189     12'708'355

Solution repositories    Added  Queried  Synchro
    'alternative_path':      0        0        0
      'best_solutions':      0        0        0
   'fj solution hints':    810        0      810
        'lp solutions':    313    4'052      313
                'pump':      0        0

Improving bounds shared    Num  Sym
            'default_lp':   14    0
                'max_lp':    1    0
                 'no_lp':  128    0

Clauses shared    #Exported  #Imported  #BinaryRead  #BinaryTotal
   'default_lp':      2'150     53'747          622           703
       'max_lp':      2'232     53'073          569           703
        'no_lp':     54'853      4'125          703           703

LRAT_status: NA
CpSolverResponse summary:
status: INFEASIBLE
objective: NA
best_bound: NA
integers: 343
booleans: 473
conflicts: 9043449
branches: 12390503
propagations: 747042844
integer_propagations: 185448391
restarts: 31198
lp_iterations: 0
walltime: 913.997
usertime: 913.997
deterministic_time: 4620.52
gap_integral: 0

{
  "board_size": 22,
  "parity_proved": 0,
  "target": 34,
  "child_id": 1935,
  "child_count": 2640,
  "partition": "unknown_pair_x_diag_plus_twos_x_diag_minus_twos",
  "build_seconds": 0.08152437210083008,
  "workers": 4,
  "requested_seed": 2026074035,
  "effective_seed": 2026074035,
  "main_diagonal_pair": [
    4,
    16
  ],
  "pair_index": 83,
  "diag_plus_twos": 15,
  "diag_minus_twos": 15,
  "pair_excess": 0,
  "residual_certificate_slack": 112,
  "analytic_minimum_line_defect": 70,
  "analytic_defect_details": {
    "row_costs": {
      "12": 6,
      "13": 3,
      "14": 0,
      "15": 0,
      "16": 0,
      "17": 0
    },
    "column_costs": {
      "12": 6,
      "13": 3,
      "14": 0,
      "15": 0,
      "16": 0,
      "17": 0
    },
    "plus_cost": 48,
    "minus_cost": 22,
    "row_column_minimum": 0
  },
  "maximal_line_constraints": 2455,
  "analytic_infeasible": false,
  "allowed_points": 242,
  "status": "INFEASIBLE",
  "proof_method": "cp_sat_all_lines_with_certificate_profile_cuts",
  "elapsed_seconds": 913.997302532196,
  "branches": 12390503,
  "conflicts": 9043449
}
